COLUMNS

passenger_count
pickup_ID
dropoff_ID
request_time_sec
pickup_district
dropoff_district
LDuals
IDuals
vehicle_ID
pick_position
drop_position

REQUESTS_INFO
1      433       760       31383     52        291       145       145       410       1         3         
3      410       526       31350     52        52        169       169       411       1         2         
3      374       923       31390     119       290       152       152       467       1         2         
4      836       623       31408     290       280       91        91        540       1         2         
1      737       434       31386     189       52        110       110       558       1         2         
1      276       528       31402     87        52        85        85        560       1         2         
2      745       1037      31391     290       84        120       120       663       1         3         
2      817       883       31383     290       290       104       104       676       1         2         
1      395       698       31383     100       189       123       123       852       1         2         
2      793       894       31406     290       291       113       113       886       1         2         
1      1001      923       31399     291       290       109       109       940       1         2         
1      949       915       31395     290       291       102       102       984       1         2         
1      838       743       31403     290       290       109       109       989       1         2         
1      643       354       31401     131       119       95        95        1038      1         3         
1      989       731       31395     50        131       114       114       1052      1         3         
1      722       857       31400     290       290       98        98        1147      1         3         
2      1187      790       31358     291       290       127       127       1148      1         2         
2      984       851       31396     291       291       160       160       1187      1         2         
1      1003      758       31396     291       131       146       146       1198      1         2         
1      815       972       31380     290       290       129       129       1418      1         3         
2      929       741       31411     290       50        0         0         0         0         0         
1      1188      1217      31411     192       84        0         0         0         0         0         
1      390       248       31411     52        266       0         0         0         0         0         
1      527       885       31411     52        290       0         0         0         0         0         
4      484       556       31411     189       199       0         0         0         0         0         
1      548       439       31412     52        189       0         0         0         0         0         
1      699       710       31412     290       131       0         0         0         0         0         
1      188       367       31412     286       299       0         0         0         0         0         
1      463       556       31412     168       199       0         0         0         0         0         
3      545       627       31413     52        189       0         0         0         0         0         
1      412       530       31413     52        189       0         0         0         0         0         
2      462       527       31414     189       52        0         0         0         0         0         
1      621       579       31414     280       189       0         0         0         0         0         
2      700       906       31414     290       290       0         0         0         0         0         
3      700       906       31414     290       290       0         0         0         0         0         
1      1211      891       31414     129       291       0         0         0         0         0         
1      559       373       31415     189       119       0         0         0         0         0         
1      874       643       31415     291       131       0         0         0         0         0         
1      859       795       31415     290       290       0         0         0         0         0         
3      991       1217      31416     290       84        0         0         0         0         0         
1      1032      1309      31416     84        129       0         0         0         0         0         
1      325       600       31416     299       280       0         0         0         0         0         
2      1076      722       31416     84        290       0         0         0         0         0         
1      549       923       31417     52        290       0         0         0         0         0         
1      527       726       31417     52        290       0         0         0         0         0         
1      556       250       31417     199       127       0         0         0         0         0         
1      364       371       31419     299       52        0         0         0         0         0         
1      691       754       31419     131       999       0         0         0         0         0         
1      991       651       31419     290       189       0         0         0         0         0         
1      1160      720       31419     84        290       0         0         0         0         0         
1      907       551       31419     290       189       0         0         0         0         0         
1      791       551       31419     290       189       0         0         0         0         0         
1      549       776       31420     52        131       0         0         0         0         0         
2      688       894       31420     131       291       0         0         0         0         0         
1      377       598       31420     168       189       0         0         0         0         0         
2      475       526       31420     52        52        0         0         0         0         0         
1      619       184       31420     131       87        0         0         0         0         0         
3      772       527       31422     290       52        0         0         0         0         0         
1      760       573       31422     291       189       0         0         0         0         0         
2      374       623       31422     119       280       0         0         0         0         0         
1      699       837       31422     290       290       0         0         0         0         0         
3      772       527       31422     290       52        0         0         0         0         0         
1      724       527       31422     290       52        0         0         0         0         0         
1      723       504       31423     290       52        0         0         0         0         0         
1      679       679       31423     290       290       0         0         0         0         0         
2      792       580       31424     290       189       0         0         0         0         0         
3      792       580       31424     290       189       0         0         0         0         0         
1      1034      839       31424     84        290       0         0         0         0         0         
1      1089      984       31424     291       291       0         0         0         0         0         
3      647       553       31424     280       189       0         0         0         0         0         
3      647       553       31424     280       189       0         0         0         0         0         
1      712       393       31425     131       52        0         0         0         0         0         
1      419       557       31425     168       189       0         0         0         0         0         
1      411       576       31426     52        189       0         0         0         0         0         
2      768       949       31426     290       290       0         0         0         0         0         
1      699       859       31426     290       290       0         0         0         0         0         
2      827       527       31427     291       52        0         0         0         0         0         
1      749       475       31428     290       52        0         0         0         0         0         
3      665       984       31428     131       291       0         0         0         0         0         
1      621       777       31428     280       131       0         0         0         0         0         
1      314       817       31428     119       290       0         0         0         0         0         
1      726       597       31428     290       131       0         0         0         0         0         
3      961       891       31428     291       291       0         0         0         0         0         
3      961       891       31428     291       291       0         0         0         0         0         
2      314       527       31429     119       52        0         0         0         0         0         
2      735       526       31429     131       52        0         0         0         0         0         
1      183       745       31429     178       290       0         0         0         0         0         
1      556       670       31429     199       280       0         0         0         0         0         
1      21        606       31429     98        189       0         0         0         0         0         
1      836       440       31430     290       168       0         0         0         0         0         
1      458       754       31430     52        999       0         0         0         0         0         
2      1076      802       31430     84        291       0         0         0         0         0         
3      1076      802       31430     84        291       0         0         0         0         0         
2      307       578       31431     127       189       0         0         0         0         0         
3      307       578       31431     127       189       0         0         0         0         0         
1      1094      829       31432     84        50        0         0         0         0         0         
1      554       712       31432     189       131       0         0         0         0         0         
2      842       909       31432     290       290       0         0         0         0         0         
2      99        474       31432     286       52        0         0         0         0         0         
3      99        474       31432     286       52        0         0         0         0         0         
3      304       497       31433     299       999       0         0         0         0         0         
1      454       458       31433     52        52        0         0         0         0         0         
3      304       497       31433     299       999       0         0         0         0         0         
1      790       629       31434     290       189       0         0         0         0         0         
1      990       656       31434     290       290       0         0         0         0         0         
1      644       759       31435     131       131       0         0         0         0         0         
1      237       504       31435     87        52        0         0         0         0         0         
1      1244      1045      31435     192       291       0         0         0         0         0         
1      350       502       31435     127       52        0         0         0         0         0         
1      733       672       31435     131       189       0         0         0         0         0         
4      666       438       31435     131       100       0         0         0         0         0         
1      160       649       31435     54        189       0         0         0         0         0         
2      937       1282      31436     291       192       0         0         0         0         0         
2      444       628       31436     168       189       0         0         0         0         0         
1      836       628       31437     290       189       0         0         0         0         0         
1      509       675       31437     199       189       0         0         0         0         0         
3      327       621       31437     299       280       0         0         0         0         0         
3      327       621       31437     299       280       0         0         0         0         0         
3      678       1558      31437     290       296       0         0         0         0         0         
3      678       1558      31437     290       296       0         0         0         0         0         
2      212       529       31438     266       189       0         0         0         0         0         
1      839       886       31438     290       290       0         0         0         0         0         
